benchmarks_CP/INST_36x36/20/inst36x36_20_10.dzn
S=6;
start=[|
-1,	3,	-1,	-1,	-1,	-1,	-1,	-1,	-1,	-1,	15,	-1,	-1,	-1,	-1,	-1,	-1,	-1,	-1,	-1,	-1,	-1,	-1,	-1,	13,	-1,	-1,	-1,	-1,	-1,	-1,	-1,	-1,	-1,	-1,	-1|
29,	-1,	-1,	-1,	-1,	-1,	-1,	-1,	-1,	-1,	-1,	-1,	-1,	-1,	27,	9,	-1,	-1,	-1,	-1,	-1,	-1,	-1,	-1,	-1,	34,	-1,	-1,	26,	-1,	-1,	-1,	-1,	-1,	-1,	-1|
22,	-1,	-1,	-1,	-1,	12,	-1,	-1,	-1,	-1,	-1,	-1,	-1,	-1,	31,	-1,	-1,	2,	3,	33,	-1,	-1,	-1,	35,	-1,	-1,	-1,	-1,	-1,	-1,	18,	-1,	27,	-1,	26,	-1|
-1,	-1,	-1,	-1,	-1,	-1,	-1,	-1,	-1,	-1,	-1,	12,	-1,	-1,	-1,	-1,	-1,	-1,	-1,	-1,	-1,	-1,	-1,	17,	18,	8,	-1,	11,	-1,	-1,	25,	-1,	-1,	-1,	-1,	-1|
-1,	-1,	-1,	-1,	-1,	-1,	-1,	-1,	-1,	22,	-1,	26,	-1,	-1,	20,	-1,	-1,	-1,	-1,	2,	-1,	-1,	-1,	-1,	-1,	-1,	-1,	-1,	-1,	29,	-1,	-1,	-1,	28,	12,	-1|
-1,	-1,	28,	-1,	-1,	30,	-1,	23,	-1,	-1,	-1,	-1,	-1,	-1,	-1,	-1,	33,	-1,	11,	8,	-1,	-1,	-1,	18,	-1,	-1,	25,	-1,	2,	-1,	31,	19,	-1,	-1,	-1,	1|
-1,	-1,	14,	-1,	-1,	17,	-1,	-1,	-1,	-1,	-1,	-1,	-1,	-1,	-1,	-1,	-1,	-1,	-1,	-1,	-1,	-1,	32,	-1,	-1,	-1,	-1,	34,	-1,	26,	-1,	-1,	-1,	-1,	-1,	-1|
-1,	-1,	-1,	-1,	-1,	4,	-1,	-1,	-1,	13,	-1,	21,	5,	22,	25,	8,	-1,	-1,	9,	1,	33,	-1,	-1,	-1,	-1,	-1,	16,	20,	-1,	-1,	-1,	-1,	36,	32,	-1,	27|
24,	-1,	-1,	19,	-1,	-1,	-1,	-1,	-1,	-1,	10,	-1,	14,	-1,	-1,	-1,	-1,	-1,	-1,	-1,	-1,	18,	-1,	-1,	-1,	-1,	32,	-1,	-1,	23,	17,	-1,	-1,	-1,	-1,	8|
-1,	-1,	-1,	-1,	-1,	-1,	-1,	6,	-1,	18,	-1,	-1,	-1,	-1,	36,	-1,	-1,	-1,	-1,	-1,	-1,	-1,	-1,	-1,	17,	2,	-1,	-1,	-1,	-1,	-1,	-1,	-1,	-1,	-1,	-1|
-1,	-1,	-1,	-1,	-1,	-1,	-1,	-1,	-1,	-1,	-1,	-1,	-1,	-1,	16,	-1,	-1,	-1,	20,	-1,	-1,	-1,	7,	-1,	-1,	-1,	-1,	-1,	-1,	-1,	-1,	-1,	-1,	-1,	-1,	-1|
-1,	-1,	33,	-1,	-1,	-1,	-1,	-1,	-1,	-1,	-1,	-1,	-1,	-1,	-1,	-1,	19,	28,	-1,	-1,	-1,	-1,	-1,	-1,	-1,	-1,	-1,	-1,	-1,	24,	-1,	-1,	-1,	-1,	18,	-1|
30,	-1,	-1,	-1,	-1,	-1,	-1,	-1,	-1,	-1,	-1,	-1,	16,	-1,	-1,	28,	-1,	-1,	-1,	-1,	-1,	10,	-1,	-1,	-1,	-1,	-1,	-1,	-1,	-1,	-1,	-1,	17,	-1,	-1,	19|
-1,	-1,	11,	2,	9,	-1,	-1,	-1,	-1,	-1,	-1,	-1,	-1,	-1,	-1,	-1,	-1,	22,	-1,	-1,	-1,	-1,	-1,	7,	-1,	-1,	-1,	-1,	31,	-1,	-1,	-1,	-1,	-1,	-1,	-1|
-1,	-1,	-1,	-1,	-1,	-1,	31,	-1,	-1,	-1,	19,	-1,	-1,	32,	-1,	-1,	-1,	-1,	-1,	21,	29,	-1,	-1,	24,	-1,	-1,	-1,	-1,	-1,	14,	-1,	-1,	-1,	36,	25,	22|
-1,	-1,	-1,	-1,	-1,	-1,	2,	-1,	-1,	25,	-1,	-1,	4,	-1,	-1,	-1,	-1,	26,	15,	-1,	23,	-1,	-1,	-1,	-1,	-1,	-1,	-1,	-1,	-1,	-1,	-1,	-1,	-1,	7,	-1|
-1,	-1,	-1,	-1,	-1,	-1,	-1,	-1,	-1,	28,	-1,	-1,	-1,	-1,	-1,	-1,	-1,	-1,	-1,	-1,	-1,	-1,	-1,	4,	-1,	-1,	-1,	-1,	-1,	13,	-1,	-1,	-1,	-1,	-1,	20|
-1,	-1,	-1,	-1,	-1,	-1,	-1,	-1,	-1,	-1,	-1,	-1,	-1,	31,	-1,	-1,	-1,	-1,	-1,	3,	16,	-1,	-1,	-1,	-1,	-1,	-1,	-1,	-1,	4,	-1,	28,	-1,	-1,	-1,	-1|
-1,	33,	4,	-1,	-1,	-1,	-1,	-1,	-1,	-1,	-1,	-1,	-1,	27,	-1,	-1,	24,	30,	-1,	-1,	-1,	-1,	-1,	-1,	-1,	10,	-1,	9,	-1,	6,	-1,	-1,	-1,	16,	-1,	31|
36,	-1,	-1,	-1,	-1,	-1,	-1,	-1,	-1,	34,	-1,	-1,	10,	-1,	23,	13,	-1,	31,	17,	-1,	-1,	6,	-1,	-1,	-1,	-1,	-1,	-1,	-1,	-1,	-1,	7,	-1,	-1,	-1,	-1|
8,	-1,	7,	30,	-1,	-1,	-1,	-1,	-1,	33,	3,	-1,	-1,	-1,	-1,	-1,	-1,	-1,	-1,	-1,	18,	-1,	-1,	-1,	-1,	-1,	-1,	-1,	-1,	28,	-1,	13,	-1,	-1,	-1,	-1|
-1,	6,	-1,	-1,	-1,	21,	15,	-1,	-1,	-1,	-1,	-1,	-1,	-1,	22,	-1,	-1,	-1,	35,	-1,	3,	24,	-1,	-1,	-1,	-1,	-1,	-1,	-1,	-1,	-1,	-1,	23,	20,	-1,	-1|
-1,	14,	-1,	-1,	-1,	-1,	6,	-1,	23,	-1,	-1,	-1,	-1,	-1,	-1,	-1,	29,	-1,	-1,	-1,	-1,	21,	16,	-1,	-1,	26,	24,	-1,	-1,	-1,	-1,	-1,	-1,	-1,	-1,	-1|
-1,	-1,	15,	-1,	-1,	-1,	32,	-1,	13,	21,	-1,	-1,	-1,	-1,	-1,	-1,	4,	-1,	36,	9,	-1,	-1,	-1,	-1,	-1,	-1,	-1,	7,	-1,	-1,	-1,	-1,	5,	-1,	33,	-1|
-1,	-1,	-1,	-1,	-1,	24,	-1,	-1,	-1,	-1,	-1,	-1,	20,	-1,	28,	-1,	-1,	7,	32,	-1,	-1,	-1,	-1,	-1,	19,	-1,	-1,	26,	-1,	-1,	-1,	-1,	-1,	-1,	4,	-1|
-1,	-1,	-1,	-1,	-1,	-1,	-1,	-1,	-1,	-1,	6,	22,	-1,	33,	-1,	-1,	-1,	-1,	-1,	-1,	26,	-1,	-1,	10,	-1,	7,	-1,	-1,	-1,	-1,	-1,	-1,	8,	-1,	-1,	-1|
17,	-1,	-1,	-1,	-1,	2,	-1,	-1,	-1,	-1,	21,	-1,	-1,	-1,	3,	26,	-1,	-1,	24,	-1,	-1,	-1,	-1,	-1,	-1,	-1,	-1,	-1,	-1,	-1,	-1,	-1,	-1,	-1,	-1,	13|
-1,	-1,	-1,	-1,	-1,	-1,	-1,	27,	-1,	-1,	-1,	-1,	-1,	-1,	-1,	-1,	-1,	-1,	-1,	-1,	8,	1,	-1,	-1,	-1,	-1,	-1,	-1,	-1,	33,	-1,	-1,	-1,	9,	-1,	-1|
-1,	-1,	-1,	-1,	-1,	-1,	-1,	13,	-1,	-1,	-1,	-1,	-1,	-1,	-1,	-1,	-1,	21,	-1,	-1,	-1,	33,	-1,	6,	-1,	22,	29,	-1,	-1,	-1,	27,	-1,	-1,	-1,	-1,	-1|
-1,	-1,	31,	-1,	-1,	6,	-1,	-1,	-1,	-1,	-1,	-1,	-1,	8,	-1,	-1,	16,	-1,	-1,	-1,	-1,	-1,	-1,	-1,	-1,	-1,	-1,	-1,	-1,	9,	-1,	33,	-1,	-1,	17,	7|
-1,	-1,	-1,	-1,	-1,	-1,	-1,	-1,	-1,	-1,	-1,	20,	-1,	-1,	-1,	-1,	6,	-1,	-1,	-1,	-1,	-1,	-1,	-1,	-1,	4,	9,	-1,	-1,	-1,	-1,	-1,	-1,	-1,	-1,	-1|
14,	-1,	27,	-1,	-1,	11,	-1,	-1,	-1,	-1,	-1,	-1,	-1,	-1,	-1,	-1,	-1,	-1,	-1,	20,	-1,	-1,	-1,	8,	-1,	29,	33,	6,	-1,	-1,	-1,	-1,	-1,	-1,	-1,	-1|
21,	-1,	-1,	-1,	-1,	-1,	-1,	11,	-1,	-1,	-1,	-1,	-1,	-1,	14,	-1,	-1,	-1,	-1,	-1,	-1,	-1,	6,	-1,	-1,	-1,	35,	22,	-1,	-1,	-1,	-1,	-1,	17,	-1,	-1|
-1,	-1,	-1,	-1,	-1,	22,	-1,	-1,	-1,	-1,	36,	27,	-1,	-1,	-1,	-1,	-1,	23,	-1,	15,	32,	-1,	-1,	-1,	-1,	-1,	-1,	-1,	-1,	-1,	-1,	-1,	-1,	-1,	-1,	-1|
-1,	-1,	-1,	-1,	-1,	10,	-1,	-1,	32,	-1,	35,	-1,	-1,	-1,	-1,	5,	2,	-1,	-1,	-1,	-1,	-1,	-1,	-1,	-1,	-1,	30,	-1,	13,	18,	-1,	-1,	-1,	-1,	-1,	29|
-1,	-1,	-1,	-1,	-1,	-1,	-1,	-1,	-1,	31,	-1,	-1,	-1,	-1,	33,	-1,	8,	35,	10,	-1,	-1,	-1,	-1,	-1,	-1,	-1,	-1,	-1,	-1,	-1,	-1,	-1,	-1,	-1,	13,	-1|];
